c
c LOANDRA:	 an extension of Open-WBO to core-boosted linear search.
c Version:	 July 2019 2018 -- Release: 1.0
c Authors:	 Jeremias Berg, Emir Demirovic, Peter Stuckey
c We thank the developers of Open-WBO for their work
c
c Open-WBO:	 a Modular MaxSAT Solver -- based on Glucose4.1 (core version)
c Version:	 September 2018 -- Release: 2.1
c Authors:	 Ruben Martins, Vasco Manquinho, Ines Lynce
c Contributors:	 Miguel Neves, Saurabh Joshi, Norbert Manthey, Mikolas Janota
c Contact:	 open-wbo@sat.inesc-id.pt -- http://sat.inesc-id.pt/open-wbo/
c
c WARNING: for repeatability, setting FPU to use double precision
c |                                                                                                       |
c ========================================[ Problem Statistics ]===========================================
c |                                                                                                       |
c |  Problem Format:             MaxSAT                                                                   |
c |  Problem Type:           Unweighted                                                                   |
c |  Number of variables:          2888                                                                   |
c |  Number of hard clauses:      19177                                                                   |
c |  Number of soft clauses:       2438                                                                   |
c |  Number of cardinality:           0                                                                   |
c |  Number of PB :                   0                                                                   |
c |  Parse time:                   0.01 s                                                                 |
c |                                                                                                       |
c PMRES ALGORITHM WITH LINEAR SEARCH 
c PMRES LINEAR STRAT=1
c PMRES LINEAR DIVISION=1
c PMRES CORE DIVISION=0
c PMRES CORE LIMIT (-1 = no limit)=30
c PMRES RELAX BEFORE STRAT =0
c PMRES INCREMENTAL LIN DIVISION =0
c PMRES MINIM =1
c PMRES MINIM STRAT =0
c PRE hard clauses before: 21615
c PRE soft literals before: 2438
c PRE time: 0 removed weight: 1638
c PRE hard clauses after: 16878
c PRE soft literals after: 800
c Checking model
c CG best 1967 LB: 1638 at 0
o 1967
c CG GAP: 329 T 0
c CG New weight: 1 at 0
c PMRES CORE LIMIT (-1 = no limit)=30
c Core budget remaining 30
c CG GAP: 328 T 0
c LB : 1639         CS : 1            W  : 1           
c Core budget remaining 30
c CG GAP: 327 T 0
c LB : 1640         CS : 8            W  : 1           
c Core budget remaining 30
c CG GAP: 326 T 0
c LB : 1641         CS : 12           W  : 1           
c Core budget remaining 30
c CG GAP: 325 T 0
c LB : 1642         CS : 7            W  : 1           
c Core budget remaining 30
c CG GAP: 324 T 0
c LB : 1643         CS : 5            W  : 1           
c Core budget remaining 30
c CG GAP: 323 T 0
c LB : 1644         CS : 5            W  : 1           
c Core budget remaining 30
c CG GAP: 322 T 0
c LB : 1645         CS : 5            W  : 1           
c Core budget remaining 30
c CG GAP: 321 T 0
c LB : 1646         CS : 5            W  : 1           
c Core budget remaining 30
c CG GAP: 320 T 0
c LB : 1647         CS : 5            W  : 1           
c Core budget remaining 30
c CG GAP: 319 T 0
c LB : 1648         CS : 14           W  : 1           
c Core budget remaining 30
c CG GAP: 318 T 0
c LB : 1649         CS : 5            W  : 1           
c Core budget remaining 30
c CG GAP: 317 T 0
c LB : 1650         CS : 4            W  : 1           
c Core budget remaining 30
c CG GAP: 316 T 0
c LB : 1651         CS : 4            W  : 1           
c Core budget remaining 30
c CG GAP: 315 T 0
c LB : 1652         CS : 4            W  : 1           
c Core budget remaining 30
c CG GAP: 314 T 0
c LB : 1653         CS : 4            W  : 1           
c Core budget remaining 30
c CG GAP: 313 T 0
c LB : 1654         CS : 4            W  : 1           
c Core budget remaining 30
c CG GAP: 312 T 0
c LB : 1655         CS : 4            W  : 1           
c Core budget remaining 30
c CG GAP: 311 T 0
c LB : 1656         CS : 4            W  : 1           
c Core budget remaining 30
c CG GAP: 310 T 0
c LB : 1657         CS : 4            W  : 1           
c Core budget remaining 30
c CG GAP: 309 T 0
c LB : 1658         CS : 4            W  : 1           
c Core budget remaining 30
c CG GAP: 308 T 0
c LB : 1659         CS : 4            W  : 1           
c Core budget remaining 30
c CG GAP: 307 T 0
c LB : 1660         CS : 4            W  : 1           
c Core budget remaining 30
c CG GAP: 306 T 0
c LB : 1661         CS : 4            W  : 1           
c Core budget remaining 30
c CG GAP: 305 T 0
c LB : 1662         CS : 4            W  : 1           
c Core budget remaining 30
c CG GAP: 304 T 0
c LB : 1663         CS : 4            W  : 1           
c Core budget remaining 30
c CG GAP: 303 T 0
c LB : 1664         CS : 4            W  : 1           
c Core budget remaining 30
c CG GAP: 302 T 0
c LB : 1665         CS : 4            W  : 1           
c Core budget remaining 30
c CG GAP: 301 T 0
c LB : 1666         CS : 7            W  : 1           
c Core budget remaining 30
c CG GAP: 300 T 0
c LB : 1667         CS : 7            W  : 1           
c Core budget remaining 30
c CG GAP: 299 T 0
c LB : 1668         CS : 6            W  : 1           
c Core budget remaining 30
c CG GAP: 298 T 0
c LB : 1669         CS : 6            W  : 1           
c Core budget remaining 30
c CG GAP: 297 T 0
c LB : 1670         CS : 6            W  : 1           
c Core budget remaining 30
c CG GAP: 296 T 0
c LB : 1671         CS : 4            W  : 1           
c Core budget remaining 30
c CG GAP: 295 T 0
c LB : 1672         CS : 4            W  : 1           
c Core budget remaining 30
c CG GAP: 294 T 0
c LB : 1673         CS : 4            W  : 1           
c Core budget remaining 30
c CG GAP: 293 T 0
c LB : 1674         CS : 4            W  : 1           
c Core budget remaining 30
c CG GAP: 292 T 0
c LB : 1675         CS : 4            W  : 1           
c Core budget remaining 30
c CG GAP: 291 T 0
c LB : 1676         CS : 4            W  : 1           
c Core budget remaining 30
c CG GAP: 290 T 0
c LB : 1677         CS : 1            W  : 1           
c Core budget remaining 30
c CG GAP: 289 T 0
c LB : 1678         CS : 1            W  : 1           
c Core budget remaining 30
c CG GAP: 288 T 0
c LB : 1679         CS : 1            W  : 1           
c Core budget remaining 30
c CG GAP: 287 T 0
c LB : 1680         CS : 1            W  : 1           
c Core budget remaining 30
c CG GAP: 286 T 0
c LB : 1681         CS : 1            W  : 1           
c Core budget remaining 30
c CG GAP: 285 T 0
c LB : 1682         CS : 1            W  : 1           
c Core budget remaining 30
c CG GAP: 284 T 0
c LB : 1683         CS : 1            W  : 1           
c Core budget remaining 30
c CG GAP: 283 T 0
c LB : 1684         CS : 1            W  : 1           
c Core budget remaining 30
c CG GAP: 282 T 0
c LB : 1685         CS : 1            W  : 1           
c Core budget remaining 30
c CG GAP: 281 T 0
c LB : 1686         CS : 1            W  : 1           
c Core budget remaining 30
c CG GAP: 280 T 0
c LB : 1687         CS : 1            W  : 1           
c Core budget remaining 30
c CG GAP: 279 T 0
c LB : 1688         CS : 1            W  : 1           
c Core budget remaining 30
c CG GAP: 278 T 0
c LB : 1689         CS : 1            W  : 1           
c Core budget remaining 30
c CG GAP: 277 T 0
c LB : 1690         CS : 1            W  : 1           
c Core budget remaining 30
c CG GAP: 276 T 0
c LB : 1691         CS : 1            W  : 1           
c Core budget remaining 30
c CG GAP: 275 T 0
c LB : 1692         CS : 1            W  : 1           
c Core budget remaining 30
c CG GAP: 274 T 0
c LB : 1693         CS : 1            W  : 1           
c Core budget remaining 30
c CG GAP: 273 T 0
c LB : 1694         CS : 1            W  : 1           
c Core budget remaining 30
c CG GAP: 272 T 0
c LB : 1695         CS : 1            W  : 1           
c Core budget remaining 30
c CG GAP: 271 T 0
c LB : 1696         CS : 1            W  : 1           
c Core budget remaining 30
c CG GAP: 270 T 0
c LB : 1697         CS : 1            W  : 1           
c Core budget remaining 30
c CG GAP: 269 T 0
c LB : 1698         CS : 1            W  : 1           
c Core budget remaining 30
c CG GAP: 268 T 0
c LB : 1699         CS : 1            W  : 1           
c Core budget remaining 30
c CG GAP: 267 T 0
c LB : 1700         CS : 1            W  : 1           
c Core budget remaining 30
c CG GAP: 266 T 0
c LB : 1701         CS : 1            W  : 1           
c Core budget remaining 30
c CG GAP: 265 T 0
c LB : 1702         CS : 1            W  : 1           
c Core budget remaining 30
c CG GAP: 264 T 0
c LB : 1703         CS : 1            W  : 1           
c Core budget remaining 30
c CG GAP: 263 T 0
c LB : 1704         CS : 1            W  : 1           
c Core budget remaining 30
c CG GAP: 262 T 0
c LB : 1705         CS : 1            W  : 1           
c Core budget remaining 30
c CG GAP: 261 T 0
c LB : 1706         CS : 1            W  : 1           
c Core budget remaining 30
c CG GAP: 260 T 0
c LB : 1707         CS : 1            W  : 1           
c Core budget remaining 30
c CG GAP: 259 T 0
c LB : 1708         CS : 1            W  : 1           
c Core budget remaining 30
c CG GAP: 258 T 0
c LB : 1709         CS : 1            W  : 1           
c Core budget remaining 30
c CG GAP: 257 T 0
c LB : 1710         CS : 1            W  : 1           
c Core budget remaining 30
c CG GAP: 256 T 0
c LB : 1711         CS : 1            W  : 1           
c Core budget remaining 30
c CG GAP: 255 T 0
c LB : 1712         CS : 1            W  : 1           
c Core budget remaining 30
c CG GAP: 254 T 0
c LB : 1713         CS : 1            W  : 1           
c Core budget remaining 30
c CG GAP: 253 T 0
c LB : 1714         CS : 1            W  : 1           
c Core budget remaining 30
c CG GAP: 252 T 0
c LB : 1715         CS : 1            W  : 1           
c Core budget remaining 30
c CG GAP: 251 T 0
c LB : 1716         CS : 1            W  : 1           
c Core budget remaining 30
c CG GAP: 250 T 0
c LB : 1717         CS : 1            W  : 1           
c Core budget remaining 30
c CG GAP: 249 T 0
c LB : 1718         CS : 1            W  : 1           
c Core budget remaining 30
c CG GAP: 248 T 0
c LB : 1719         CS : 1            W  : 1           
c Core budget remaining 30
c CG GAP: 247 T 0
c LB : 1720         CS : 1            W  : 1           
c Core budget remaining 30
c CG GAP: 246 T 0
c LB : 1721         CS : 1            W  : 1           
c Core budget remaining 30
c CG GAP: 245 T 0
c LB : 1722         CS : 1            W  : 1           
c Core budget remaining 30
c CG GAP: 244 T 0
c LB : 1723         CS : 1            W  : 1           
c Core budget remaining 30
c CG GAP: 243 T 0
c LB : 1724         CS : 1            W  : 1           
c Core budget remaining 30
c CG GAP: 242 T 0
c LB : 1725         CS : 1            W  : 1           
c Core budget remaining 30
c CG GAP: 241 T 0
c LB : 1726         CS : 1            W  : 1           
c Core budget remaining 30
c CG GAP: 240 T 0
c LB : 1727         CS : 1            W  : 1           
c Core budget remaining 30
c CG GAP: 239 T 0
c LB : 1728         CS : 1            W  : 1           
c Core budget remaining 30
c CG GAP: 238 T 0
c LB : 1729         CS : 1            W  : 1           
c Core budget remaining 30
c CG GAP: 237 T 0
c LB : 1730         CS : 1            W  : 1           
c Core budget remaining 30
c CG GAP: 236 T 0
c LB : 1731         CS : 1            W  : 1           
c Core budget remaining 30
c CG GAP: 235 T 0
c LB : 1732         CS : 1            W  : 1           
c Core budget remaining 30
c CG GAP: 234 T 0
c LB : 1733         CS : 1            W  : 1           
c Core budget remaining 30
c CG GAP: 233 T 0
c LB : 1734         CS : 1            W  : 1           
c Core budget remaining 30
c CG GAP: 232 T 0
c LB : 1735         CS : 1            W  : 1           
c Core budget remaining 30
c CG GAP: 231 T 0
c LB : 1736         CS : 1            W  : 1           
c Core budget remaining 30
c CG GAP: 230 T 0
c LB : 1737         CS : 1            W  : 1           
c Core budget remaining 30
c CG GAP: 229 T 0
c LB : 1738         CS : 1            W  : 1           
c Core budget remaining 30
c CG GAP: 228 T 0
c LB : 1739         CS : 1            W  : 1           
c Core budget remaining 30
c CG GAP: 227 T 0
c LB : 1740         CS : 1            W  : 1           
c Core budget remaining 30
c CG GAP: 226 T 0
c LB : 1741         CS : 1            W  : 1           
c Core budget remaining 30
c CG GAP: 225 T 0
c LB : 1742         CS : 1            W  : 1           
c Core budget remaining 30
c CG GAP: 224 T 0
c LB : 1743         CS : 1            W  : 1           
c Core budget remaining 30
c CG GAP: 223 T 0
c LB : 1744         CS : 1            W  : 1           
c Core budget remaining 30
c CG GAP: 222 T 0
c LB : 1745         CS : 1            W  : 1           
c Core budget remaining 30
c CG GAP: 221 T 0
c LB : 1746         CS : 1            W  : 1           
c Core budget remaining 30
c CG GAP: 220 T 0
c LB : 1747         CS : 1            W  : 1           
c Core budget remaining 30
c CG GAP: 219 T 0
c LB : 1748         CS : 1            W  : 1           
c Core budget remaining 30
c CG GAP: 218 T 0
c LB : 1749         CS : 1            W  : 1           
c Core budget remaining 30
c CG GAP: 217 T 0
c LB : 1750         CS : 1            W  : 1           
c Core budget remaining 30
c CG GAP: 216 T 0
c LB : 1751         CS : 1            W  : 1           
c Core budget remaining 30
c CG GAP: 215 T 0
c LB : 1752         CS : 1            W  : 1           
c Core budget remaining 30
c CG GAP: 214 T 0
c LB : 1753         CS : 1            W  : 1           
c Core budget remaining 30
c CG GAP: 213 T 0
c LB : 1754         CS : 1            W  : 1           
c Core budget remaining 30
c CG GAP: 212 T 0
c LB : 1755         CS : 1            W  : 1           
c Core budget remaining 30
c CG GAP: 211 T 0
c LB : 1756         CS : 1            W  : 1           
c Core budget remaining 30
c CG GAP: 210 T 0
c LB : 1757         CS : 1            W  : 1           
c Core budget remaining 30
c CG GAP: 209 T 0
c LB : 1758         CS : 1            W  : 1           
c Core budget remaining 30
c CG GAP: 208 T 0
c LB : 1759         CS : 1            W  : 1           
c Core budget remaining 30
c CG GAP: 207 T 0
c LB : 1760         CS : 1            W  : 1           
c Core budget remaining 30
c CG GAP: 206 T 0
c LB : 1761         CS : 1            W  : 1           
c Core budget remaining 30
c CG GAP: 205 T 0
c LB : 1762         CS : 1            W  : 1           
c Core budget remaining 30
c CG GAP: 204 T 0
c LB : 1763         CS : 1            W  : 1           
c Core budget remaining 30
c CG GAP: 203 T 0
c LB : 1764         CS : 1            W  : 1           
c Core budget remaining 30
c CG GAP: 202 T 0
c LB : 1765         CS : 1            W  : 1           
c Core budget remaining 30
c CG GAP: 201 T 0
c LB : 1766         CS : 1            W  : 1           
c Core budget remaining 30
c CG GAP: 200 T 0
c LB : 1767         CS : 1            W  : 1           
c Core budget remaining 30
c CG GAP: 199 T 0
c LB : 1768         CS : 1            W  : 1           
c Core budget remaining 30
c CG GAP: 198 T 0
c LB : 1769         CS : 1            W  : 1           
c Core budget remaining 30
c CG GAP: 197 T 0
c LB : 1770         CS : 1            W  : 1           
c Core budget remaining 30
c CG GAP: 196 T 0
c LB : 1771         CS : 1            W  : 1           
c Core budget remaining 30
c CG GAP: 195 T 0
c LB : 1772         CS : 1            W  : 1           
c Core budget remaining 30
c CG GAP: 194 T 0
c LB : 1773         CS : 1            W  : 1           
c Core budget remaining 30
c CG GAP: 193 T 0
c LB : 1774         CS : 1            W  : 1           
c Core budget remaining 30
c CG GAP: 192 T 0
c LB : 1775         CS : 1            W  : 1           
c Core budget remaining 30
c CG GAP: 191 T 0
c LB : 1776         CS : 1            W  : 1           
c Core budget remaining 30
c CG GAP: 190 T 0
c LB : 1777         CS : 1            W  : 1           
c Core budget remaining 30
c CG GAP: 189 T 0
c LB : 1778         CS : 1            W  : 1           
c Core budget remaining 30
c CG GAP: 188 T 0
c LB : 1779         CS : 1            W  : 1           
c Core budget remaining 30
c CG GAP: 187 T 0
c LB : 1780         CS : 1            W  : 1           
c Core budget remaining 30
c CG GAP: 186 T 0
c LB : 1781         CS : 1            W  : 1           
c Core budget remaining 30
c CG GAP: 185 T 0
c LB : 1782         CS : 1            W  : 1           
c Core budget remaining 30
c CG GAP: 184 T 0
c LB : 1783         CS : 1            W  : 1           
c Core budget remaining 30
c CG GAP: 183 T 0
c LB : 1784         CS : 1            W  : 1           
c Core budget remaining 30
c CG GAP: 182 T 0
c LB : 1785         CS : 1            W  : 1           
c Core budget remaining 30
c CG GAP: 181 T 0
c LB : 1786         CS : 1            W  : 1           
c Core budget remaining 30
c CG GAP: 180 T 0
c LB : 1787         CS : 1            W  : 1           
c Core budget remaining 30
c CG GAP: 179 T 0
c LB : 1788         CS : 1            W  : 1           
c Core budget remaining 30
c CG GAP: 178 T 0
c LB : 1789         CS : 1            W  : 1           
c Core budget remaining 30
c CG GAP: 177 T 0
c LB : 1790         CS : 1            W  : 1           
c Core budget remaining 30
c CG GAP: 176 T 0
c LB : 1791         CS : 1            W  : 1           
c Core budget remaining 30
c CG GAP: 175 T 0
c LB : 1792         CS : 1            W  : 1           
c Core budget remaining 30
c CG GAP: 174 T 0
c LB : 1793         CS : 1            W  : 1           
c Core budget remaining 30
c CG GAP: 173 T 0
c LB : 1794         CS : 1            W  : 1           
c Core budget remaining 30
c CG GAP: 172 T 0
c LB : 1795         CS : 1            W  : 1           
c Core budget remaining 30
c CG GAP: 171 T 0
c LB : 1796         CS : 1            W  : 1           
c Core budget remaining 30
c CG GAP: 170 T 0
c LB : 1797         CS : 1            W  : 1           
c Core budget remaining 30
c CG GAP: 169 T 0
c LB : 1798         CS : 1            W  : 1           
c Core budget remaining 30
c CG GAP: 168 T 0
c LB : 1799         CS : 1            W  : 1           
c Core budget remaining 30
c CG GAP: 167 T 0
c LB : 1800         CS : 1            W  : 1           
c Core budget remaining 30
c CG GAP: 166 T 0
c LB : 1801         CS : 1            W  : 1           
c Core budget remaining 30
c CG GAP: 165 T 0
c LB : 1802         CS : 1            W  : 1           
c Core budget remaining 30
c CG GAP: 164 T 0
c LB : 1803         CS : 1            W  : 1           
c Core budget remaining 30
c CG GAP: 163 T 0
c LB : 1804         CS : 1            W  : 1           
c Core budget remaining 30
c CG GAP: 162 T 0
c LB : 1805         CS : 1            W  : 1           
c Core budget remaining 30
c CG GAP: 161 T 0
c LB : 1806         CS : 1            W  : 1           
c Core budget remaining 30
c CG GAP: 160 T 0
c LB : 1807         CS : 1            W  : 1           
c Core budget remaining 30
c CG GAP: 159 T 0
c LB : 1808         CS : 1            W  : 1           
c Core budget remaining 30
c CG GAP: 158 T 0
c LB : 1809         CS : 1            W  : 1           
c Core budget remaining 30
c CG GAP: 157 T 0
c LB : 1810         CS : 1            W  : 1           
c Core budget remaining 30
c CG GAP: 156 T 0
c LB : 1811         CS : 1            W  : 1           
c Core budget remaining 30
c CG GAP: 155 T 0
c LB : 1812         CS : 1            W  : 1           
c Core budget remaining 30
c CG GAP: 154 T 0
c LB : 1813         CS : 1            W  : 1           
c Core budget remaining 30
c CG GAP: 153 T 0
c LB : 1814         CS : 1            W  : 1           
c Core budget remaining 30
c CG GAP: 152 T 0
c LB : 1815         CS : 1            W  : 1           
c Core budget remaining 30
c CG GAP: 151 T 0
c LB : 1816         CS : 1            W  : 1           
c Core budget remaining 30
c CG GAP: 150 T 0
c LB : 1817         CS : 1            W  : 1           
c Core budget remaining 30
c CG GAP: 149 T 0
c LB : 1818         CS : 1            W  : 1           
c Core budget remaining 30
c CG GAP: 148 T 0
c LB : 1819         CS : 1            W  : 1           
c Core budget remaining 30
c CG GAP: 147 T 0
c LB : 1820         CS : 1            W  : 1           
c Core budget remaining 30
c CG GAP: 146 T 0
c LB : 1821         CS : 1            W  : 1           
c Core budget remaining 30
c CG GAP: 145 T 0
c LB : 1822         CS : 1            W  : 1           
c Core budget remaining 30
c CG GAP: 144 T 0
c LB : 1823         CS : 1            W  : 1           
c Core budget remaining 30
c CG GAP: 143 T 0
c LB : 1824         CS : 1            W  : 1           
c Core budget remaining 30
c CG GAP: 142 T 0
c LB : 1825         CS : 1            W  : 1           
c Core budget remaining 30
c CG GAP: 141 T 0
c LB : 1826         CS : 1            W  : 1           
c Core budget remaining 30
c CG GAP: 140 T 0
c LB : 1827         CS : 1            W  : 1           
c Core budget remaining 30
c CG GAP: 139 T 0
c LB : 1828         CS : 1            W  : 1           
c Core budget remaining 30
c CG GAP: 138 T 0
c LB : 1829         CS : 1            W  : 1           
c Core budget remaining 30
c CG GAP: 137 T 0
c LB : 1830         CS : 1            W  : 1           
c Core budget remaining 30
c CG GAP: 136 T 0
c LB : 1831         CS : 1            W  : 1           
c Core budget remaining 30
c CG GAP: 135 T 0
c LB : 1832         CS : 1            W  : 1           
c Core budget remaining 30
c CG GAP: 134 T 0
c LB : 1833         CS : 1            W  : 1           
c Core budget remaining 30
c CG GAP: 133 T 0
c LB : 1834         CS : 1            W  : 1           
c Core budget remaining 30
c CG GAP: 132 T 0
c LB : 1835         CS : 1            W  : 1           
c Core budget remaining 30
c CG GAP: 131 T 0
c LB : 1836         CS : 1            W  : 1           
c Core budget remaining 30
c CG GAP: 130 T 0
c LB : 1837         CS : 1            W  : 1           
c Core budget remaining 30
c CG GAP: 129 T 0
c LB : 1838         CS : 1            W  : 1           
c Core budget remaining 30
c CG GAP: 128 T 0
c LB : 1839         CS : 4            W  : 1           
c Core budget remaining 30
c CG GAP: 127 T 0
c LB : 1840         CS : 1            W  : 1           
c Core budget remaining 30
c CG GAP: 126 T 0
c LB : 1841         CS : 1            W  : 1           
c Core budget remaining 30
c CG GAP: 125 T 0
c LB : 1842         CS : 1            W  : 1           
c Core budget remaining 30
c CG GAP: 124 T 0
c LB : 1843         CS : 1            W  : 1           
c Core budget remaining 30
c CG GAP: 123 T 0
c LB : 1844         CS : 1            W  : 1           
c Core budget remaining 30
c CG GAP: 122 T 0
c LB : 1845         CS : 1            W  : 1           
c Core budget remaining 30
c CG GAP: 121 T 0
c LB : 1846         CS : 1            W  : 1           
c Core budget remaining 30
c CG GAP: 120 T 0
c LB : 1847         CS : 1            W  : 1           
c Core budget remaining 30
c CG GAP: 119 T 0
c LB : 1848         CS : 1            W  : 1           
c Core budget remaining 30
c CG GAP: 118 T 0
c LB : 1849         CS : 1            W  : 1           
c Core budget remaining 30
c CG GAP: 117 T 0
c LB : 1850         CS : 1            W  : 1           
c Core budget remaining 30
c CG GAP: 116 T 0
c LB : 1851         CS : 1            W  : 1           
c Core budget remaining 30
c CG GAP: 115 T 0
c LB : 1852         CS : 1            W  : 1           
c Core budget remaining 30
c CG GAP: 114 T 0
c LB : 1853         CS : 1            W  : 1           
c Core budget remaining 30
c CG GAP: 113 T 0
c LB : 1854         CS : 1            W  : 1           
c Core budget remaining 30
c CG GAP: 112 T 0
c LB : 1855         CS : 1            W  : 1           
c Core budget remaining 30
c CG GAP: 111 T 0
c LB : 1856         CS : 1            W  : 1           
c Core budget remaining 30
c CG GAP: 110 T 0
c LB : 1857         CS : 1            W  : 1           
c Core budget remaining 30
c CG GAP: 109 T 0
c LB : 1858         CS : 1            W  : 1           
c Core budget remaining 30
c CG GAP: 108 T 0
c LB : 1859         CS : 1            W  : 1           
c Core budget remaining 30
c CG GAP: 107 T 0
c LB : 1860         CS : 1            W  : 1           
c Core budget remaining 30
c CG GAP: 106 T 0
c LB : 1861         CS : 1            W  : 1           
c Core budget remaining 30
c CG GAP: 105 T 0
c LB : 1862         CS : 1            W  : 1           
c Core budget remaining 30
c CG GAP: 104 T 0
c LB : 1863         CS : 1            W  : 1           
c Core budget remaining 30
c CG GAP: 103 T 0
c LB : 1864         CS : 1            W  : 1           
c Core budget remaining 30
c CG GAP: 102 T 0
c LB : 1865         CS : 5            W  : 1           
c Core budget remaining 30
c CG GAP: 101 T 0
c LB : 1866         CS : 4            W  : 1           
c Core budget remaining 30
c CG GAP: 100 T 0
c LB : 1867         CS : 4            W  : 1           
c Core budget remaining 30
c CG GAP: 99 T 0
c LB : 1868         CS : 3            W  : 1           
c Core budget remaining 30
c CG GAP: 98 T 0
c LB : 1869         CS : 4            W  : 1           
c Core budget remaining 30
c CG GAP: 97 T 0
c LB : 1870         CS : 4            W  : 1           
c Core budget remaining 30
c CG GAP: 96 T 0
c LB : 1871         CS : 4            W  : 1           
c Core budget remaining 30
c CG GAP: 95 T 0
c LB : 1872         CS : 4            W  : 1           
c Core budget remaining 30
c CG GAP: 94 T 0
c LB : 1873         CS : 4            W  : 1           
c Core budget remaining 30
c CG GAP: 93 T 0
c LB : 1874         CS : 4            W  : 1           
c Core budget remaining 30
c CG GAP: 92 T 0
c LB : 1875         CS : 4            W  : 1           
c Core budget remaining 30
c CG GAP: 91 T 0
c LB : 1876         CS : 4            W  : 1           
c Core budget remaining 30
c CG GAP: 90 T 0
c LB : 1877         CS : 4            W  : 1           
c Core budget remaining 30
c CG GAP: 89 T 0
c LB : 1878         CS : 4            W  : 1           
c Core budget remaining 30
c CG GAP: 88 T 0
c LB : 1879         CS : 4            W  : 1           
c Core budget remaining 30
c CG GAP: 87 T 0
c LB : 1880         CS : 4            W  : 1           
c Core budget remaining 30
c CG GAP: 86 T 0
c LB : 1881         CS : 4            W  : 1           
c Core budget remaining 30
c CG GAP: 85 T 0
c LB : 1882         CS : 4            W  : 1           
c Core budget remaining 30
c CG GAP: 84 T 0
c LB : 1883         CS : 4            W  : 1           
c Core budget remaining 30
c CG GAP: 83 T 0
c LB : 1884         CS : 4            W  : 1           
c Core budget remaining 30
c SAT-During core guided phase at 0
c Checking model
c Hardening with gap: 83
c Hardened in total: 0 clauses
c Hardening again at gap 1
c Strat 2 Relax
c Updating solver at 0
c Starting lin search with: LB: 1884 UB: 1967 UB - LB: 83 Time 0
c Deleting solver
c CG New factor 1
c Extending best model to full formula
c Checking model
c Reduced cost 83 gap 83
c Building new PB
c Considering 554 of 554 soft clauses
c Minimizing in init
c Minimization time 0 init minsize 83 skipped 0
c Reduced cost 83 gap 83
c Encoding PB with UB: 83 obj size 554
c Encoding Done
c Setting Card Vars currently: 8116 / orig 3686
c Checking model
c Found same cost model covering more variables
c CardVars DONE  
c SAT Call at 0
c Reduced cost 83 gap 83
c Checking model
c BOUND UPDATE RHS: 82 at 0
c SAT Call at 0
c Reduced cost 82 gap 83
c Checking model
c LIN best 1966 LB: 1884 at 0
o 1966
c LIN GAP: 82 T 0
c BOUND UPDATE RHS: 81 at 0
c SAT Call at 0
c Reduced cost 81 gap 82
c Checking model
c LIN best 1965 LB: 1884 at 0
o 1965
c LIN GAP: 81 T 0
c BOUND UPDATE RHS: 80 at 0
c SAT Call at 0
c Reduced cost 80 gap 81
c Checking model
c LIN best 1964 LB: 1884 at 0
o 1964
c LIN GAP: 80 T 0
c BOUND UPDATE RHS: 79 at 0
c SAT Call at 0
c Reduced cost 79 gap 80
c Checking model
c LIN best 1963 LB: 1884 at 0
o 1963
c LIN GAP: 79 T 0
c BOUND UPDATE RHS: 78 at 0
c SAT Call at 0
c Reduced cost 78 gap 79
c Checking model
c LIN best 1962 LB: 1884 at 0
o 1962
c LIN GAP: 78 T 0
c BOUND UPDATE RHS: 77 at 0
c SAT Call at 0
c Reduced cost 77 gap 78
c Checking model
c LIN best 1961 LB: 1884 at 0
o 1961
c LIN GAP: 77 T 0
c BOUND UPDATE RHS: 76 at 0
c SAT Call at 0
c Reduced cost 76 gap 77
c Checking model
c LIN best 1960 LB: 1884 at 0
o 1960
c LIN GAP: 76 T 0
c BOUND UPDATE RHS: 75 at 0
c SAT Call at 0
c Reduced cost 75 gap 76
c Checking model
c LIN best 1959 LB: 1884 at 0
o 1959
c LIN GAP: 75 T 0
c BOUND UPDATE RHS: 74 at 0
c SAT Call at 0
c Reduced cost 74 gap 75
c Checking model
c LIN best 1958 LB: 1884 at 0
o 1958
c LIN GAP: 74 T 0
c BOUND UPDATE RHS: 73 at 0
c SAT Call at 0
c Reduced cost 73 gap 74
c Checking model
c LIN best 1957 LB: 1884 at 0
o 1957
c LIN GAP: 73 T 0
c BOUND UPDATE RHS: 72 at 0
c SAT Call at 0
c Reduced cost 72 gap 73
c Checking model
c LIN best 1956 LB: 1884 at 0
o 1956
c LIN GAP: 72 T 0
c BOUND UPDATE RHS: 71 at 0
c SAT Call at 0
c Reduced cost 71 gap 72
c Checking model
c LIN best 1955 LB: 1884 at 0
o 1955
c LIN GAP: 71 T 0
c BOUND UPDATE RHS: 70 at 0
c SAT Call at 0
c Reduced cost 70 gap 71
c Checking model
c LIN best 1954 LB: 1884 at 0
o 1954
c LIN GAP: 70 T 0
c BOUND UPDATE RHS: 69 at 0
c SAT Call at 0
c Reduced cost 69 gap 70
c Checking model
c LIN best 1953 LB: 1884 at 0
o 1953
c LIN GAP: 69 T 0
c BOUND UPDATE RHS: 68 at 0
c SAT Call at 0
c Reduced cost 68 gap 69
c Checking model
c LIN best 1952 LB: 1884 at 0
o 1952
c LIN GAP: 68 T 0
c BOUND UPDATE RHS: 67 at 0
c SAT Call at 0
c Reduced cost 67 gap 68
c Checking model
c LIN best 1951 LB: 1884 at 0
o 1951
c LIN GAP: 67 T 0
c BOUND UPDATE RHS: 66 at 0
c SAT Call at 0
c Reduced cost 66 gap 67
c Checking model
c LIN best 1950 LB: 1884 at 0
o 1950
c LIN GAP: 66 T 0
c BOUND UPDATE RHS: 65 at 0
c SAT Call at 0
c Reduced cost 65 gap 66
c Checking model
c LIN best 1949 LB: 1884 at 0
o 1949
c LIN GAP: 65 T 0
c BOUND UPDATE RHS: 64 at 0
c SAT Call at 0
c Reduced cost 64 gap 65
c Checking model
c LIN best 1948 LB: 1884 at 0
o 1948
c LIN GAP: 64 T 0
c BOUND UPDATE RHS: 63 at 0
c SAT Call at 0
c Reduced cost 63 gap 64
c Checking model
c LIN best 1947 LB: 1884 at 0
o 1947
c LIN GAP: 63 T 0
c BOUND UPDATE RHS: 62 at 0
c SAT Call at 0
c Reduced cost 62 gap 63
c Checking model
c LIN best 1946 LB: 1884 at 0
o 1946
c LIN GAP: 62 T 0
c BOUND UPDATE RHS: 61 at 0
c SAT Call at 0
c Reduced cost 61 gap 62
c Checking model
c LIN best 1945 LB: 1884 at 0
o 1945
c LIN GAP: 61 T 0
c BOUND UPDATE RHS: 60 at 0
c SAT Call at 0
c Reduced cost 60 gap 61
c Checking model
c LIN best 1944 LB: 1884 at 0
o 1944
c LIN GAP: 60 T 0
c BOUND UPDATE RHS: 59 at 0
c SAT Call at 0
c Reduced cost 59 gap 60
c Checking model
c LIN best 1943 LB: 1884 at 0
o 1943
c LIN GAP: 59 T 0
c BOUND UPDATE RHS: 58 at 0
c SAT Call at 0
c Reduced cost 58 gap 59
c Checking model
c LIN best 1941 LB: 1884 at 0
o 1941
c LIN GAP: 57 T 0
c BOUND UPDATE RHS: 57 at 0
c SAT Call at 0
c Reduced cost 57 gap 57
c Checking model
c LIN best 1940 LB: 1884 at 0
o 1940
c LIN GAP: 56 T 0
c BOUND UPDATE RHS: 56 at 0
c SAT Call at 0
c Reduced cost 56 gap 56
c Checking model
c BOUND UPDATE RHS: 55 at 0
c SAT Call at 0
c Reduced cost 55 gap 56
c Checking model
c LIN best 1939 LB: 1884 at 0
o 1939
c LIN GAP: 55 T 0
c BOUND UPDATE RHS: 54 at 0
c SAT Call at 0
c Reduced cost 54 gap 55
c Checking model
c LIN best 1938 LB: 1884 at 0
o 1938
c LIN GAP: 54 T 0
c BOUND UPDATE RHS: 53 at 0
c SAT Call at 0
c Reconstructing in print answer
c Reconstruction time: 0
c new cost: 1938
s OPTIMUM FOUND
v 00100100100100100100100100100100100100100100100100100100100100100100100100100100100100100100100100100100100100100100100100100100100100100100100100100110110110110110110110110110110110110110110110110110110110110111110110110110110110110110110110110110110110110110110110110110110110110110110110110110110111111111111111111110111111111111111111111111111111111111110111111111111111111111111111110111111111110111111111111111111111111111111111111111111111111111111111111111111111111111111111111111111111111111111111111111111111111111111111111111111111111111111111111111111111111111111111111111111111111111111111111111111111111111111111111111111111111111111111111111111111111111111111111111111111111111111111111111111111111111111111111111111111111111111111111111111111111111111111111111111111111111111111111111111111111111111111111111111111111111111111111111111111111111111111111111111111111111111111111111111111111111111111111111111111111111111111111111111111111111111111111111111111111111111111111111111111111111111111111111111111111111111111111111111111111111111111111111111111111111111111111111111111111111111111111111111111111111111111111111111111111111111111111111111111111111111111111111111111111111111111111000000000000000000000000000000000000000000000000000000000000000000000000000000000000000000000000000000000000000000000000000000000000000000000000000000000000000000000000000000000000000000000000000000000000000000000000000000000000000000000000000000000000000000000000000000000000000000000000000000000000000000000000000000000000000000000000000000000000000000000000000000000000000000000000000000000000000000000000000000000000000000000000000000000000000000000000000000001111111111111111111111111111111111110000000000000000000000000000000000000000000000000000000000000000000000000000000000000000000000000000000000000000000000000000000000000000000000000000000000000000000000000000000000000000000000000000000000000000000000000000000000000000000000000000000000000000000000000000000000000000000000000000000000000000000000000000000000000000000000000000000000000000000000000000000000000000000000000000000000000000000000000000000000000000000000000000000000000000000000000000000000000000000000000000000000000000000000000000000000000000000000000000000000000000000000000000000000000000000000000000000000000000000000000000000000000000000000000000000000000000000000000000000000000000000000000000000000000000000000000000000000000000000000000000000000000000000000000000000000000000000000000000000000000000000000000000000000000000000000000000000000000000000000000000000000000000000000000000000000000000000000000000000000000000000000000000000000000000000000000000000000000000000000000000000000000000000000000000000000000000000000000000000000000000000000000000000000000000000000000000000000000000000000000000000000000000000000000000000000000000000000000000000000000000000000000000000000000000000000000000000
